NAME: A-n6-f2
COMMENT : -
TYPE : GVRP
DIMENSION : 7
EDGE_WEIGHT_TYPE : EUC_2D
CAPACITY : 100
AUTONOMY : 100
TIME LIMIT : 11
SPEED : 40.0
FUEL CONSUMPTION : 1.0
DEPOT_COORD_SECTION
0 82 76
CUSTOMER_COORD_SECTION
1 96 44 19 0.5957193699046498
2 50 5 21 0.9356009698650332
3 49 8 6 0.2592422083588767
4 13 7 19 0.5263413780058577
5 29 89 7 0.4238963951121918
AFS_COORD_SECTION
6 48 5 0.4652890228556913
7 32 51 0.08961496213769549
EOF